(set-logic QF_S)
(declare-fun var0 () String)
(declare-fun var1 () String)
(declare-fun var2 () String)
(declare-fun var3 () Int)
(declare-fun var4 () Int)
(declare-fun var5 () Int)
(declare-fun var6 () Bool)
(declare-fun var7 () Bool)
(declare-fun var8 () Bool)
(assert (< (str.indexof var2 var2 7) (str.indexof var1 var0 var3)))
(assert (str.contains var0 "X6#)_x[GE~"))
(assert (str.in.re var2 re.allchar))
(assert (str.contains (str.substr var2 10 var4) (str.at (str.substr var0 var5 var4) (str.indexof var2 var2 var5))))
(check-sat)